c nIsolatedPIs 2
c maxPI 30
p cnf 171 424
c gate 31 -5 -20 0
-5 -31 0
-20 -31 0
5 20 31 0
c gate 32 5 20 0
5 -32 0
20 -32 0
-5 -20 32 0
c gate 33 -4 -19 0
-4 -33 0
-19 -33 0
4 19 33 0
c gate 34 4 19 0
4 -34 0
19 -34 0
-4 -19 34 0
c gate 35 -3 -18 0
-3 -35 0
-18 -35 0
3 18 35 0
c gate 36 -12 -27 0
-12 -36 0
-27 -36 0
12 27 36 0
c gate 37 -11 -26 0
-11 -37 0
-26 -37 0
11 26 37 0
c gate 38 11 26 0
11 -38 0
26 -38 0
-11 -26 38 0
c gate 39 10 25 0
10 -39 0
25 -39 0
-10 -25 39 0
c gate 40 -9 -24 0
-9 -40 0
-24 -40 0
9 24 40 0
c gate 41 9 24 0
9 -41 0
24 -41 0
-9 -24 41 0
c gate 42 8 23 0
8 -42 0
23 -42 0
-8 -23 42 0
c gate 43 -41 -42 0
-41 -43 0
-42 -43 0
41 42 43 0
c gate 44 7 22 0
7 -44 0
22 -44 0
-7 -22 44 0
c gate 45 1 16 0
1 -45 0
16 -45 0
-1 -16 45 0
c gate 46 -44 -45 0
-44 -46 0
-45 -46 0
44 45 46 0
c gate 47 -8 -23 0
-8 -47 0
-23 -47 0
8 23 47 0
c gate 48 -46 -47 0
-46 -48 0
-47 -48 0
46 47 48 0
c gate 49 43 -48 0
43 -49 0
-48 -49 0
-43 48 49 0
c gate 50 -40 -49 0
-40 -50 0
-49 -50 0
40 49 50 0
c gate 51 -7 -22 0
-7 -51 0
-22 -51 0
7 22 51 0
c gate 52 43 51 0
43 -52 0
51 -52 0
-43 -51 52 0
c gate 53 50 -52 0
50 -53 0
-52 -53 0
-50 52 53 0
c gate 54 -39 -53 0
-39 -54 0
-53 -54 0
39 53 54 0
c gate 55 -10 -25 0
-10 -55 0
-25 -55 0
10 25 55 0
c gate 56 -54 -55 0
-54 -56 0
-55 -56 0
54 55 56 0
c gate 57 -38 -56 0
-38 -57 0
-56 -57 0
38 56 57 0
c gate 58 -37 -57 0
-37 -58 0
-57 -58 0
37 57 58 0
c gate 59 -36 58 0
-36 -59 0
58 -59 0
36 -58 59 0
c gate 60 12 27 0
12 -60 0
27 -60 0
-12 -27 60 0
c gate 61 13 28 0
13 -61 0
28 -61 0
-13 -28 61 0
c gate 62 -60 -61 0
-60 -62 0
-61 -62 0
60 61 62 0
c gate 63 -59 62 0
-59 -63 0
62 -63 0
59 -62 63 0
c gate 64 -14 -29 0
-14 -64 0
-29 -64 0
14 29 64 0
c gate 65 -13 -28 0
-13 -65 0
-28 -65 0
13 28 65 0
c gate 66 -64 -65 0
-64 -66 0
-65 -66 0
64 65 66 0
c gate 67 -63 66 0
-63 -67 0
66 -67 0
63 -66 67 0
c gate 68 14 29 0
14 -68 0
29 -68 0
-14 -29 68 0
c gate 69 15 30 0
15 -69 0
30 -69 0
-15 -30 69 0
c gate 70 -68 -69 0
-68 -70 0
-69 -70 0
68 69 70 0
c gate 71 -67 70 0
-67 -71 0
70 -71 0
67 -70 71 0
c gate 72 -15 -30 0
-15 -72 0
-30 -72 0
15 30 72 0
c gate 73 -2 -17 0
-2 -73 0
-17 -73 0
2 17 73 0
c gate 74 -72 -73 0
-72 -74 0
-73 -74 0
72 73 74 0
c gate 75 -71 74 0
-71 -75 0
74 -75 0
71 -74 75 0
c gate 76 3 18 0
3 -76 0
18 -76 0
-3 -18 76 0
c gate 77 2 17 0
2 -77 0
17 -77 0
-2 -17 77 0
c gate 78 -76 -77 0
-76 -78 0
-77 -78 0
76 77 78 0
c gate 79 -75 78 0
-75 -79 0
78 -79 0
75 -78 79 0
c gate 80 -35 -79 0
-35 -80 0
-79 -80 0
35 79 80 0
c gate 81 -34 -80 0
-34 -81 0
-80 -81 0
34 80 81 0
c gate 82 -33 -81 0
-33 -82 0
-81 -82 0
33 81 82 0
c gate 83 -32 -82 0
-32 -83 0
-82 -83 0
32 82 83 0
c gate 84 -31 -83 0
-31 -84 0
-83 -84 0
31 83 84 0
c gate 85 -6 -21 0
-6 -85 0
-21 -85 0
6 21 85 0
c gate 86 84 -85 0
84 -86 0
-85 -86 0
-84 85 86 0
c gate 87 -32 -34 0
-32 -87 0
-34 -87 0
32 34 87 0
c gate 88 -76 87 0
-76 -88 0
87 -88 0
76 -87 88 0
c gate 89 -31 -88 0
-31 -89 0
-88 -89 0
31 88 89 0
c gate 90 6 21 0
6 -90 0
21 -90 0
-6 -21 90 0
c gate 91 89 -90 0
89 -91 0
-90 -91 0
-89 90 91 0
c gate 92 -86 91 0
-86 -92 0
91 -92 0
86 -91 92 0
c gate 93 -89 -90 0
-89 -93 0
-90 -93 0
89 90 93 0
c gate 94 86 93 0
86 -94 0
93 -94 0
-86 -93 94 0
c gate 95 84 -91 0
84 -95 0
-91 -95 0
-84 91 95 0
c gate 96 13 -28 0
13 -96 0
-28 -96 0
-13 28 96 0
c gate 97 14 -29 0
14 -97 0
-29 -97 0
-14 29 97 0
c gate 98 -96 -97 0
-96 -98 0
-97 -98 0
96 97 98 0
c gate 99 -13 28 0
-13 -99 0
28 -99 0
13 -28 99 0
c gate 100 11 -26 0
11 -100 0
-26 -100 0
-11 26 100 0
c gate 101 -11 26 0
-11 -101 0
26 -101 0
11 -26 101 0
c gate 102 10 -25 0
10 -102 0
-25 -102 0
-10 25 102 0
c gate 103 9 -24 0
9 -103 0
-24 -103 0
-9 24 103 0
c gate 104 8 -23 0
8 -104 0
-23 -104 0
-8 23 104 0
c gate 105 -44 -51 0
-44 -105 0
-51 -105 0
44 51 105 0
c gate 106 16 -105 0
16 -106 0
-105 -106 0
-16 105 106 0
c gate 107 -1 106 0
-1 -107 0
106 -107 0
1 -106 107 0
c gate 108 -7 22 0
-7 -108 0
22 -108 0
7 -22 108 0
c gate 109 -107 -108 0
-107 -109 0
-108 -109 0
107 108 109 0
c gate 110 -104 -109 0
-104 -110 0
-109 -110 0
104 109 110 0
c gate 111 -8 23 0
-8 -111 0
23 -111 0
8 -23 111 0
c gate 112 -110 -111 0
-110 -112 0
-111 -112 0
110 111 112 0
c gate 113 -103 -112 0
-103 -113 0
-112 -113 0
103 112 113 0
c gate 114 -10 25 0
-10 -114 0
25 -114 0
10 -25 114 0
c gate 115 -9 24 0
-9 -115 0
24 -115 0
9 -24 115 0
c gate 116 -114 -115 0
-114 -116 0
-115 -116 0
114 115 116 0
c gate 117 -113 116 0
-113 -117 0
116 -117 0
113 -116 117 0
c gate 118 -102 -117 0
-102 -118 0
-117 -118 0
102 117 118 0
c gate 119 -101 -118 0
-101 -119 0
-118 -119 0
101 118 119 0
c gate 120 -100 -119 0
-100 -120 0
-119 -120 0
100 119 120 0
c gate 121 -12 27 0
-12 -121 0
27 -121 0
12 -27 121 0
c gate 122 -120 -121 0
-120 -122 0
-121 -122 0
120 121 122 0
c gate 123 12 -27 0
12 -123 0
-27 -123 0
-12 27 123 0
c gate 124 -122 -123 0
-122 -124 0
-123 -124 0
122 123 124 0
c gate 125 -99 -124 0
-99 -125 0
-124 -125 0
99 124 125 0
c gate 126 98 -125 0
98 -126 0
-125 -126 0
-98 125 126 0
c gate 127 -15 30 0
-15 -127 0
30 -127 0
15 -30 127 0
c gate 128 -14 29 0
-14 -128 0
29 -128 0
14 -29 128 0
c gate 129 -127 -128 0
-127 -129 0
-128 -129 0
127 128 129 0
c gate 130 -126 129 0
-126 -130 0
129 -130 0
126 -129 130 0
c gate 131 -69 -72 0
-69 -131 0
-72 -131 0
69 72 131 0
c gate 132 -98 -131 0
-98 -132 0
-131 -132 0
98 131 132 0
c gate 133 -73 -77 0
-73 -133 0
-77 -133 0
73 77 133 0
c gate 134 -132 133 0
-132 -134 0
133 -134 0
132 -133 134 0
c gate 135 -130 134 0
-130 -135 0
134 -135 0
130 -134 135 0
c gate 136 15 -30 0
15 -136 0
-30 -136 0
-15 30 136 0
c gate 137 130 -134 0
130 -137 0
-134 -137 0
-130 134 137 0
c gate 138 -136 -137 0
-136 -138 0
-137 -138 0
136 137 138 0
c gate 139 -135 138 0
-135 -139 0
138 -139 0
135 -138 139 0
c gate 140 76 -82 0
76 -140 0
-82 -140 0
-76 82 140 0
c gate 141 -34 76 0
-34 -141 0
76 -141 0
34 -76 141 0
c gate 142 80 -141 0
80 -142 0
-141 -142 0
-80 141 142 0
c gate 143 12 -65 0
12 -143 0
-65 -143 0
-12 65 143 0
c gate 144 62 143 0
62 -144 0
143 -144 0
-62 -143 144 0
c gate 145 -124 -144 0
-124 -145 0
-144 -145 0
124 144 145 0
c gate 146 -36 -60 0
-36 -146 0
-60 -146 0
36 60 146 0
c gate 147 100 146 0
100 -147 0
146 -147 0
-100 -146 147 0
c gate 148 -120 -147 0
-120 -148 0
-147 -148 0
120 147 148 0
c gate 149 -36 -68 0
-36 -149 0
-68 -149 0
36 68 149 0
c gate 150 66 149 0
66 -150 0
149 -150 0
-66 -149 150 0
c gate 151 63 150 0
63 -151 0
150 -151 0
-63 -150 151 0
c gate 152 37 -146 0
37 -152 0
-146 -152 0
-37 146 152 0
c gate 153 -58 -152 0
-58 -153 0
-152 -153 0
58 152 153 0
c gate 154 -100 -101 0
-100 -154 0
-101 -154 0
100 101 154 0
c gate 155 -50 154 0
-50 -155 0
154 -155 0
50 -154 155 0
c gate 156 54 -155 0
54 -156 0
-155 -156 0
-54 155 156 0
c gate 157 1 106 0
1 -157 0
106 -157 0
-1 -106 157 0
c gate 158 96 128 0
96 -158 0
128 -158 0
-96 -128 158 0
c gate 159 -55 -158 0
-55 -159 0
-158 -159 0
55 158 159 0
c gate 160 -157 159 0
-157 -160 0
159 -160 0
157 -159 160 0
c gate 161 -156 160 0
-156 -161 0
160 -161 0
156 -160 161 0
c gate 162 -153 161 0
-153 -162 0
161 -162 0
153 -161 162 0
c gate 163 -151 162 0
-151 -163 0
162 -163 0
151 -162 163 0
c gate 164 -148 163 0
-148 -164 0
163 -164 0
148 -163 164 0
c gate 165 -145 164 0
-145 -165 0
164 -165 0
145 -164 165 0
c gate 166 -142 165 0
-142 -166 0
165 -166 0
142 -165 166 0
c gate 167 -140 166 0
-140 -167 0
166 -167 0
140 -166 167 0
c gate 168 -139 167 0
-139 -168 0
167 -168 0
139 -167 168 0
c gate 169 -95 168 0
-95 -169 0
168 -169 0
95 -168 169 0
c gate 170 -94 169 0
-94 -170 0
169 -170 0
94 -169 170 0
c gate 171 -92 170 0
-92 -171 0
170 -171 0
92 -170 171 0
c PO
-171 0
